; Copyright (c) 2026 The RIINA Authors. All rights reserved.
; Copyright (c) 2026 The RIINA Authors.
; Auto-generated from 02_FORMAL/coq/domains/mobile_os/GraphicsEngine.v (21 assertions)
; Generated by scripts/generate-full-stack.py
; Module: GraphicsEngine

(set-logic ALL)
(set-option :produce-models true)

; RenderStage (matches Coq: Inductive RenderStage)
(declare-datatypes ((RenderStage 0)) (((Geometry) (Rasterization) (Shading) (Compositing) (Display))))

; ColorSpace (matches Coq: Inductive ColorSpace)
(declare-datatypes ((ColorSpace 0)) (((SRGB) (LinearRGB) (DisplayP3) (HDR10))))

; AAMethod (matches Coq: Inductive AAMethod)
(declare-datatypes ((AAMethod 0)) (((NoAA) (MSAA2x) (MSAA4x) (FXAA) (TAA))))

; Frame (matches Coq: Record Frame)
(declare-datatypes ((Frame 0))
  (((mk-frame (frame_id Int) (frame_render_time Microseconds) (frame_complexity Int) (frame_rendered Bool)))))

; Animation (matches Coq: Record Animation)
(declare-datatypes ((Animation 0))
  (((mk-animation (anim_id Int) (anim_frames list) (anim_duration Int) (anim_fps Int)))))

; Shader (matches Coq: Record Shader)
(declare-datatypes ((Shader 0))
  (((mk-shader (shader_id Int) (shader_compiled Bool) (shader_validated Bool) (shader_type Int)))))

; Texture (matches Coq: Record Texture)
(declare-datatypes ((Texture 0))
  (((mk-texture (tex_id Int) (tex_width Int) (tex_height Int) (tex_memory_bytes Int) (tex_format Int)))))

; GPUMemory (matches Coq: Record GPUMemory)
(declare-datatypes ((GPUMemory 0))
  (((mk-gpu_memory (gpu_used_bytes Int) (gpu_max_bytes Int) (gpu_texture_bytes Int) (gpu_buffer_bytes Int)))))

; DrawBatch (matches Coq: Record DrawBatch)
(declare-datatypes ((DrawBatch 0))
  (((mk-draw_batch (batch_id Int) (batch_draw_calls Int) (batch_merged_calls Int) (batch_overdraw_ratio Int)))))

; FrameBuffer (matches Coq: Record FrameBuffer)
(declare-datatypes ((FrameBuffer 0))
  (((mk-frame_buffer (fb_width Int) (fb_height Int) (fb_front Int) (fb_back Int) (fb_double_buffered Bool)))))

; RenderThread (matches Coq: Record RenderThread)
(declare-datatypes ((RenderThread 0))
  (((mk-render_thread (rt_id Int) (rt_priority Int) (rt_frame_time_us Int) (rt_vsync_aligned Bool)))))

; ZBuffer (matches Coq: Record ZBuffer)
(declare-datatypes ((ZBuffer 0))
  (((mk-z_buffer (zbuf_bits Int) (zbuf_near Int) (zbuf_far Int)))))

; Microseconds (matches Coq: Definition Microseconds)
(define-fun Microseconds () Type nat)

; frame_budget_120hz (matches Coq: Definition frame_budget_120hz)
(define-fun frame_budget_120hz () Microseconds 8333)

; meets_frame_budget (matches Coq: Definition meets_frame_budget)
(define-fun meets_frame_budget ((f Frame)) Prop
  true)

; well_optimized_frame (matches Coq: Definition well_optimized_frame)
(define-fun well_optimized_frame ((f Frame)) Prop
  true)

; frames_rendered (matches Coq: Definition frames_rendered)
(define-fun frames_rendered ((a Animation)) Int
  true)

; frames_expected (matches Coq: Definition frames_expected)
(define-fun frames_expected ((a Animation)) Int
  true)

; well_formed_animation (matches Coq: Definition well_formed_animation)
(define-fun well_formed_animation ((a Animation)) Prop
  true)

; has_frame_drop (matches Coq: Definition has_frame_drop)
(define-fun has_frame_drop ((a Animation)) Prop
  true)

; well_formed_gpu_mem (matches Coq: Definition well_formed_gpu_mem)
(define-fun well_formed_gpu_mem ((m GPUMemory)) Prop
  true)

; well_formed_shader (matches Coq: Definition well_formed_shader)
(define-fun well_formed_shader ((s Shader)) Prop
  true)

; well_formed_framebuffer (matches Coq: Definition well_formed_framebuffer)
(define-fun well_formed_framebuffer ((fb FrameBuffer)) Prop
  true)

; well_formed_batch (matches Coq: Definition well_formed_batch)
(define-fun well_formed_batch ((b DrawBatch)) Prop
  true)

; well_formed_render_thread (matches Coq: Definition well_formed_render_thread)
(define-fun well_formed_render_thread ((rt RenderThread)) Prop
  true)

; frame_rate_120hz_guaranteed (matches Coq: Theorem frame_rate_120hz_guaranteed)
(assert (= true true)) ; frame_rate_120hz_guaranteed [untranslatable]

; no_frame_drops (matches Coq: Theorem no_frame_drops)
(assert (= true true)) ; no_frame_drops [untranslatable]

; well_formed_renders_all (matches Coq: Theorem well_formed_renders_all)
(assert (= true true)) ; well_formed_renders_all [untranslatable]

; render_pipeline_complete (matches Coq: Theorem render_pipeline_complete)
(assert (= (length render_pipeline) 5)) ; render_pipeline_complete

; pipeline_starts_geometry (matches Coq: Theorem pipeline_starts_geometry)
(assert (= (hd_error render_pipeline) (Some Geometry))) ; pipeline_starts_geometry

; pipeline_ends_display (matches Coq: Theorem pipeline_ends_display)
(assert (= (last render_pipeline Geometry) Display)) ; pipeline_ends_display

; render_pipeline_has_all_stages (matches Coq: Theorem render_pipeline_has_all_stages)
(assert (= true true)) ; render_pipeline_has_all_stages [untranslatable]

; shader_compilation_validated (matches Coq: Theorem shader_compilation_validated)
(assert (= true true)) ; shader_compilation_validated [untranslatable]

; texture_memory_bounded (matches Coq: Theorem texture_memory_bounded)
(assert (= true true)) ; texture_memory_bounded [untranslatable]

; draw_call_batched (matches Coq: Theorem draw_call_batched)
(assert (= true true)) ; draw_call_batched [untranslatable]

; vsync_synchronized (matches Coq: Theorem vsync_synchronized)
(assert (= true true)) ; vsync_synchronized [untranslatable]

; frame_buffer_double_buffered (matches Coq: Theorem frame_buffer_double_buffered)
(assert (= true true)) ; frame_buffer_double_buffered [untranslatable]

; gpu_memory_tracked (matches Coq: Theorem gpu_memory_tracked)
(assert (= true true)) ; gpu_memory_tracked [untranslatable]

; overdraw_minimized (matches Coq: Theorem overdraw_minimized)
(assert (= true true)) ; overdraw_minimized [untranslatable]

; culling_correct (matches Coq: Theorem culling_correct)
(assert (= true true)) ; culling_correct [untranslatable]

; z_buffer_precise (matches Coq: Theorem z_buffer_precise)
(assert (= true true)) ; z_buffer_precise [untranslatable]

; anti_aliasing_applied (matches Coq: Theorem anti_aliasing_applied)
(assert (= true true)) ; anti_aliasing_applied [untranslatable]

; color_space_correct (matches Coq: Theorem color_space_correct)
(assert (= true true)) ; color_space_correct [untranslatable]

; hdr_tone_mapped (matches Coq: Theorem hdr_tone_mapped)
(assert (forall ((cs ColorSpace)) (=> (= cs HDR10) (= cs HDR10)))) ; hdr_tone_mapped

; gpu_timeout_handled (matches Coq: Theorem gpu_timeout_handled)
(assert (= true true)) ; gpu_timeout_handled [untranslatable]

; render_thread_priority (matches Coq: Theorem render_thread_priority)
(assert (= true true)) ; render_thread_priority [untranslatable]

; Verify all assertions are satisfiable
(check-sat)
(exit)
